(set-info :smt-lib-version 2.6)
(set-logic UF)
(set-info :source |
Generated by: Andrew Reynolds
Generated on: 2017-04-28
Generator: Sledgehammer, converted to v2.6 by CVC4
Application: Verfication goals in Isabelle
Target solver: CVC4, Z3
Publications: "A Decision Procedure for (Co)Datatypes" by Andrew Reynolds and Jasmin Blanchette, CADE 2015.
|)
(set-info :license "https://creativecommons.org/licenses/by/4.0/")
(set-info :category "industrial")
(set-info :status unknown)


(declare-sort A$ 0)
(declare-sort Nat$ 0)
(declare-sort A_a_fun$ 0)
(declare-sort Nat_nat_fun$ 0)
(declare-sort Bool_nat_fun$ 0)
(declare-sort Nat_bool_fun$ 0)
(declare-sort Unit_nat_fun$ 0)
(declare-sort Nat_natural_fun$ 0)
(declare-sort Natural_nat_fun$ 0)
(declare-sort A_a_fun_a_a_fun_fun$ 0)
(declare-sort Nat_nat_bool_fun_fun$ 0)
(declare-sort Natural_nat_nat_fun_fun$ 0)
(declare-sort Nat_a_a_fun_a_a_fun_fun_fun$ 0)
(declare-sort Nat_nat_fun_nat_nat_fun_fun$ 0)
(declare-sort Nat_nat_nat_fun_nat_nat_fun_fun_fun$ 0)
(declare-sort Natural_nat_fun_natural_nat_fun_fun$ 0)
(declare-sort Natural_nat_nat_fun_fun_natural_nat_fun_fun$ 0)
(declare-sort A_llist$ 0)
(declare-fun lNil$ () A_llist$)
(declare-fun lhd$ (A_llist$) A$)
(declare-fun ltl$ (A_llist$) A_llist$)
(declare-fun lCons$ (A$ A_llist$) A_llist$)
(declare-sort Natural$ 0)
(declare-sort Nibble$ 0)
(declare-sort Char$ 0)
(declare-sort Char_list$ 0)
(declare-sort Literal$ 0)
(declare-sort Num$ 0)
(declare-sort Typerep_list$ 0)
(declare-sort Typerep$ 0)
(declare-fun nat_of_natural$ (Natural$) Nat$)
(declare-fun natural_of_nat$ (Nat$) Natural$)
(declare-fun nibble0$ () Nibble$)
(declare-fun nibble1$ () Nibble$)
(declare-fun nibble2$ () Nibble$)
(declare-fun nibble3$ () Nibble$)
(declare-fun nibble4$ () Nibble$)
(declare-fun nibble5$ () Nibble$)
(declare-fun nibble6$ () Nibble$)
(declare-fun nibble7$ () Nibble$)
(declare-fun nibble8$ () Nibble$)
(declare-fun nibble9$ () Nibble$)
(declare-fun nibbleA$ () Nibble$)
(declare-fun nibbleB$ () Nibble$)
(declare-fun nibbleC$ () Nibble$)
(declare-fun nibbleD$ () Nibble$)
(declare-fun nibbleE$ () Nibble$)
(declare-fun nibbleF$ () Nibble$)
(declare-fun select$ (Char$) Nibble$)
(declare-fun selecta$ (Char$) Nibble$)
(declare-fun char$ (Nibble$ Nibble$) Char$)
(declare-fun nil$ () Char_list$)
(declare-fun hd$ (Char_list$) Char$)
(declare-fun tl$ (Char_list$) Char_list$)
(declare-fun cons$ (Char$ Char_list$) Char_list$)
(declare-fun explode$ (Literal$) Char_list$)
(declare-fun str$ (Char_list$) Literal$)
(declare-fun one$ () Num$)
(declare-fun selectb$ (Num$) Num$)
(declare-fun bit0$ (Num$) Num$)
(declare-fun selectc$ (Num$) Num$)
(declare-fun bit1$ (Num$) Num$)
(declare-fun nil$a () Typerep_list$)
(declare-fun hd$a (Typerep_list$) Typerep$)
(declare-fun tl$a (Typerep_list$) Typerep_list$)
(declare-fun cons$a (Typerep$ Typerep_list$) Typerep_list$)
(declare-fun selectd$ (Typerep$) Literal$)
(declare-fun selecte$ (Typerep$) Typerep_list$)
(declare-fun typerep$ (Literal$ Typerep_list$) Typerep$)
(declare-fun f$ () A_a_fun$)
(declare-fun uu$ (Natural_nat_fun$) Natural_nat_nat_fun_fun$)
(declare-fun xa$ () A$)
(declare-fun suc$ () Nat_nat_fun$)
(declare-fun uua$ () Natural_nat_nat_fun_fun$)
(declare-fun less$ (Natural$ Natural$) Bool)
(declare-fun plus$ (Nat$) Nat_nat_fun$)
(declare-fun size$ (Char$) Nat$)
(declare-fun suc$a (Natural$) Natural$)
(declare-fun zero$ () Nat$)
(declare-fun less$a (Nat$) Nat_bool_fun$)
(declare-fun plus$a (Natural$ Natural$) Natural$)
(declare-fun plus$b (Num$ Num$) Num$)
(declare-fun size$a () Natural_nat_fun$)
(declare-fun size$b () Bool_nat_fun$)
(declare-fun size$c (Literal$) Nat$)
(declare-fun size$d (Nibble$) Nat$)
(declare-fun size$e (Num$) Nat$)
(declare-fun size$f (Typerep$) Nat$)
(declare-fun size$g () Unit_nat_fun$)
(declare-fun zero$a () Natural$)
(declare-fun compow$ () Nat_a_a_fun_a_a_fun_fun_fun$)
(declare-fun funpow$ () Nat_a_a_fun_a_a_fun_fun_fun$)
(declare-fun ldropn$ (Nat$ A_llist$) A_llist$)
(declare-fun of_nat$ (Nat$) Nat$)
(declare-fun compow$a () Nat_nat_nat_fun_nat_nat_fun_fun_fun$)
(declare-fun fun_app$ (Nat_nat_fun$ Nat$) Nat$)
(declare-fun funpow$a () Nat_nat_nat_fun_nat_nat_fun_fun_fun$)
(declare-fun of_nat$a (Nat$) Natural$)
(declare-fun fun_app$a (Natural_nat_nat_fun_fun$ Natural$) Nat_nat_fun$)
(declare-fun fun_app$b (Natural_nat_fun$ Natural$) Nat$)
(declare-fun fun_app$c (A_a_fun$ A$) A$)
(declare-fun fun_app$d (A_a_fun_a_a_fun_fun$ A_a_fun$) A_a_fun$)
(declare-fun fun_app$e (Nat_a_a_fun_a_a_fun_fun_fun$ Nat$) A_a_fun_a_a_fun_fun$)
(declare-fun fun_app$f (Nat_nat_fun_nat_nat_fun_fun$ Nat_nat_fun$) Nat_nat_fun$)
(declare-fun fun_app$g (Nat_nat_nat_fun_nat_nat_fun_fun_fun$ Nat$) Nat_nat_fun_nat_nat_fun_fun$)
(declare-fun fun_app$h (Bool_nat_fun$ Bool) Nat$)
(declare-fun fun_app$i (Nat_bool_fun$ Nat$) Bool)
(declare-fun fun_app$j (Nat_nat_bool_fun_fun$ Nat$) Nat_bool_fun$)
(declare-fun fun_app$k (Natural_nat_fun_natural_nat_fun_fun$ Natural_nat_fun$) Natural_nat_fun$)
(declare-fun fun_app$l (Natural_nat_nat_fun_fun_natural_nat_fun_fun$ Natural_nat_nat_fun_fun$) Natural_nat_fun$)
(declare-fun fun_app$m (Nat_natural_fun$ Nat$) Natural$)
(declare-fun iterates$ (A_a_fun$ A$) A_llist$)
(declare-fun rec_bool$ (Nat$ Nat$) Bool_nat_fun$)
(declare-fun rec_unit$ (Nat$) Unit_nat_fun$)
(declare-fun triangle$ (Nat$) Nat$)
(declare-fun size_bool$ () Bool_nat_fun$)
(declare-fun size_char$ (Char$) Nat$)
(declare-fun size_unit$ () Unit_nat_fun$)
(declare-fun num_of_nat$ (Nat$) Num$)
(declare-fun rec_natural$ (Nat$) Natural_nat_nat_fun_fun_natural_nat_fun_fun$)
(declare-fun size_nibble$ (Nibble$) Nat$)
(declare-fun case_natural$ (Nat$) Natural_nat_fun_natural_nat_fun_fun$)
(declare-fun size_natural$ () Natural_nat_fun$)
(assert (forall ((?v0 Natural$) (?v1 Nat$)) (! (= (fun_app$ (fun_app$a uua$ ?v0) ?v1) (fun_app$ (plus$ ?v1) (fun_app$ suc$ zero$))) :pattern ((fun_app$ (fun_app$a uua$ ?v0) ?v1)))))
(assert (forall ((?v0 Natural_nat_fun$) (?v1 Natural$) (?v2 Nat$)) (! (= (fun_app$ (fun_app$a (uu$ ?v0) ?v1) ?v2) (fun_app$b ?v0 ?v1)) :pattern ((fun_app$ (fun_app$a (uu$ ?v0) ?v1) ?v2)))))
(assert (not (= (ldropn$ zero$ (iterates$ f$ xa$)) (iterates$ f$ (fun_app$c (fun_app$d (fun_app$e compow$ zero$) f$) xa$)))))
(assert (forall ((?v0 A_llist$)) (! (= (ldropn$ zero$ ?v0) ?v0) :pattern ((ldropn$ zero$ ?v0)))))
(assert (forall ((?v0 A_a_fun$) (?v1 Nat$) (?v2 A$)) (= (fun_app$c ?v0 (fun_app$c (fun_app$d (fun_app$e compow$ ?v1) ?v0) ?v2)) (fun_app$c (fun_app$d (fun_app$e compow$ ?v1) ?v0) (fun_app$c ?v0 ?v2))) ))
(assert (forall ((?v0 Nat_nat_fun$) (?v1 Nat$) (?v2 Nat$)) (= (fun_app$ ?v0 (fun_app$ (fun_app$f (fun_app$g compow$a ?v1) ?v0) ?v2)) (fun_app$ (fun_app$f (fun_app$g compow$a ?v1) ?v0) (fun_app$ ?v0 ?v2))) ))
(assert (= zero$ zero$))
(assert (forall ((?v0 Nat$)) (=> (and (=> (= ?v0 zero$) false) (=> (not (= ?v0 zero$)) false)) false) ))
(assert (forall ((?v0 Nat$)) (= (= zero$ ?v0) (= ?v0 zero$)) ))
(assert (forall ((?v0 Natural$)) (= (= zero$a ?v0) (= ?v0 zero$a)) ))
(assert (forall ((?v0 Char$)) (! (= (size_char$ ?v0) zero$) :pattern ((size_char$ ?v0)))))
(assert (= funpow$ compow$))
(assert (= funpow$a compow$a))
(assert (= (fun_app$h size_bool$ true) zero$))
(assert (= (fun_app$h size_bool$ false) zero$))
(assert (forall ((?v0 Nat$) (?v1 Nat$) (?v2 A_llist$)) (= (ldropn$ ?v0 (ldropn$ ?v1 ?v2)) (ldropn$ (fun_app$ (plus$ ?v0) ?v1) ?v2)) ))
(assert (forall ((?v0 Char$)) (! (= (size$ ?v0) zero$) :pattern ((size$ ?v0)))))
(assert (forall ((?v0 Natural$) (?v1 Natural$) (?v2 Natural$)) (= (= (plus$a ?v0 ?v1) (plus$a ?v2 ?v1)) (= ?v0 ?v2)) ))
(assert (forall ((?v0 Nat$) (?v1 Nat$) (?v2 Nat$)) (= (= (fun_app$ (plus$ ?v0) ?v1) (fun_app$ (plus$ ?v2) ?v1)) (= ?v0 ?v2)) ))
(assert (forall ((?v0 Natural$) (?v1 Natural$) (?v2 Natural$)) (= (= (plus$a ?v0 ?v1) (plus$a ?v0 ?v2)) (= ?v1 ?v2)) ))
(assert (forall ((?v0 Nat$) (?v1 Nat$) (?v2 Nat$)) (= (= (fun_app$ (plus$ ?v0) ?v1) (fun_app$ (plus$ ?v0) ?v2)) (= ?v1 ?v2)) ))
(assert (forall ((?v0 Nat$)) (= (fun_app$ (plus$ zero$) ?v0) ?v0) ))
(assert (forall ((?v0 Natural$)) (= (plus$a zero$a ?v0) ?v0) ))
(assert (forall ((?v0 Nat$)) (= (fun_app$ (plus$ ?v0) zero$) ?v0) ))
(assert (forall ((?v0 Natural$)) (= (plus$a ?v0 zero$a) ?v0) ))
(assert (forall ((?v0 Nat$)) (! (= (fun_app$ (plus$ ?v0) zero$) ?v0) :pattern ((plus$ ?v0)))))
(assert (forall ((?v0 Nat$) (?v1 Nat$)) (= (= (fun_app$ (plus$ ?v0) ?v1) zero$) (and (= ?v0 zero$) (= ?v1 zero$))) ))
(assert (forall ((?v0 Nat$) (?v1 Nat$) (?v2 Nat$)) (= (= (fun_app$ (plus$ ?v0) ?v1) (fun_app$ (plus$ ?v2) ?v1)) (= ?v0 ?v2)) ))
(assert (forall ((?v0 Nat$) (?v1 Nat$) (?v2 Nat$)) (= (= (fun_app$ (plus$ ?v0) ?v1) (fun_app$ (plus$ ?v0) ?v2)) (= ?v1 ?v2)) ))
(assert (forall ((?v0 Natural$) (?v1 Natural$) (?v2 Natural$)) (= (plus$a (plus$a ?v0 ?v1) ?v2) (plus$a ?v0 (plus$a ?v1 ?v2))) ))
(assert (forall ((?v0 Nat$) (?v1 Nat$) (?v2 Nat$)) (= (fun_app$ (plus$ (fun_app$ (plus$ ?v0) ?v1)) ?v2) (fun_app$ (plus$ ?v0) (fun_app$ (plus$ ?v1) ?v2))) ))
(assert (forall ((?v0 Natural$) (?v1 Natural$) (?v2 Natural$)) (= (plus$a (plus$a ?v0 ?v1) ?v2) (plus$a ?v0 (plus$a ?v1 ?v2))) ))
(assert (forall ((?v0 Nat$) (?v1 Nat$) (?v2 Nat$)) (= (fun_app$ (plus$ (fun_app$ (plus$ ?v0) ?v1)) ?v2) (fun_app$ (plus$ ?v0) (fun_app$ (plus$ ?v1) ?v2))) ))
(assert (forall ((?v0 Natural$) (?v1 Natural$) (?v2 Natural$)) (= (plus$a ?v0 (plus$a ?v1 ?v2)) (plus$a ?v1 (plus$a ?v0 ?v2))) ))
(assert (forall ((?v0 Nat$) (?v1 Nat$) (?v2 Nat$)) (= (fun_app$ (plus$ ?v0) (fun_app$ (plus$ ?v1) ?v2)) (fun_app$ (plus$ ?v1) (fun_app$ (plus$ ?v0) ?v2))) ))
(assert (forall ((?v0 Natural$) (?v1 Natural$)) (= (plus$a ?v0 ?v1) (plus$a ?v1 ?v0)) ))
(assert (forall ((?v0 Nat$) (?v1 Nat$)) (= (fun_app$ (plus$ ?v0) ?v1) (fun_app$ (plus$ ?v1) ?v0)) ))
(assert (forall ((?v0 Natural$) (?v1 Natural$) (?v2 Natural$)) (=> (= (plus$a ?v0 ?v1) (plus$a ?v2 ?v1)) (= ?v0 ?v2)) ))
(assert (forall ((?v0 Nat$) (?v1 Nat$) (?v2 Nat$)) (=> (= (fun_app$ (plus$ ?v0) ?v1) (fun_app$ (plus$ ?v2) ?v1)) (= ?v0 ?v2)) ))
(assert (forall ((?v0 Natural$) (?v1 Natural$) (?v2 Natural$)) (=> (= (plus$a ?v0 ?v1) (plus$a ?v0 ?v2)) (= ?v1 ?v2)) ))
(assert (forall ((?v0 Nat$) (?v1 Nat$) (?v2 Nat$)) (=> (= (fun_app$ (plus$ ?v0) ?v1) (fun_app$ (plus$ ?v0) ?v2)) (= ?v1 ?v2)) ))
(assert (forall ((?v0 Natural$) (?v1 Natural$) (?v2 Natural$) (?v3 Natural$)) (=> (and (= ?v0 ?v1) (= ?v2 ?v3)) (= (plus$a ?v0 ?v2) (plus$a ?v1 ?v3))) ))
(assert (forall ((?v0 Nat$) (?v1 Nat$) (?v2 Nat$) (?v3 Nat$)) (=> (and (= ?v0 ?v1) (= ?v2 ?v3)) (= (fun_app$ (plus$ ?v0) ?v2) (fun_app$ (plus$ ?v1) ?v3))) ))
(assert (forall ((?v0 Nat$)) (= (fun_app$ (plus$ zero$) ?v0) ?v0) ))
(assert (forall ((?v0 Natural$)) (= (plus$a zero$a ?v0) ?v0) ))
(assert (forall ((?v0 Nat$)) (= (fun_app$ (plus$ ?v0) zero$) ?v0) ))
(assert (forall ((?v0 Natural$)) (= (plus$a ?v0 zero$a) ?v0) ))
(assert (forall ((?v0 Nat$) (?v1 Nat$)) (=> (= (fun_app$ (plus$ ?v0) ?v1) ?v0) (= ?v1 zero$)) ))
(assert (forall ((?v0 Nat$)) (! (= (fun_app$ (plus$ zero$) ?v0) ?v0) :pattern ((fun_app$ (plus$ zero$) ?v0)))))
(assert (= size_bool$ (rec_bool$ zero$ zero$)))
(assert (forall ((?v0 Nat_nat_bool_fun_fun$) (?v1 Nat$) (?v2 Nat$)) (=> (and (forall ((?v3 Nat$) (?v4 Nat$)) (= (fun_app$i (fun_app$j ?v0 ?v3) ?v4) (fun_app$i (fun_app$j ?v0 ?v4) ?v3)) ) (and (forall ((?v3 Nat$)) (fun_app$i (fun_app$j ?v0 ?v3) zero$) ) (forall ((?v3 Nat$) (?v4 Nat$)) (=> (fun_app$i (fun_app$j ?v0 ?v3) ?v4) (fun_app$i (fun_app$j ?v0 ?v3) (fun_app$ (plus$ ?v3) ?v4))) ))) (fun_app$i (fun_app$j ?v0 ?v1) ?v2)) ))
(assert (forall ((?v0 Nat$) (?v1 Nat$)) (= (= ?v0 (fun_app$ (plus$ ?v0) ?v1)) (= ?v1 zero$)) ))
(assert (= (fun_app$b size_natural$ zero$a) zero$))
(assert (forall ((?v0 Nibble$) (?v1 Nibble$)) (! (= (size$ (char$ ?v0 ?v1)) zero$) :pattern ((char$ ?v0 ?v1)))))
(assert (= (fun_app$b size$a zero$a) zero$))
(assert (= (fun_app$h size$b false) zero$))
(assert (= (fun_app$h size$b true) zero$))
(assert (forall ((?v0 Literal$) (?v1 Literal$)) (=> (not (= (size$c ?v0) (size$c ?v1))) (not (= ?v0 ?v1))) ))
(assert (forall ((?v0 Nibble$) (?v1 Nibble$)) (=> (not (= (size$d ?v0) (size$d ?v1))) (not (= ?v0 ?v1))) ))
(assert (forall ((?v0 Char$) (?v1 Char$)) (=> (not (= (size$ ?v0) (size$ ?v1))) (not (= ?v0 ?v1))) ))
(assert (forall ((?v0 Bool) (?v1 Bool)) (=> (not (= (fun_app$h size$b ?v0) (fun_app$h size$b ?v1))) (not (= ?v0 ?v1))) ))
(assert (forall ((?v0 Num$) (?v1 Num$)) (=> (not (= (size$e ?v0) (size$e ?v1))) (not (= ?v0 ?v1))) ))
(assert (forall ((?v0 Nibble$) (?v1 Nibble$)) (! (= (size_char$ (char$ ?v0 ?v1)) zero$) :pattern ((char$ ?v0 ?v1)))))
(assert (forall ((?v0 Nibble$) (?v1 Nibble$) (?v2 Nibble$) (?v3 Nibble$)) (= (= (char$ ?v0 ?v1) (char$ ?v2 ?v3)) (and (= ?v0 ?v2) (= ?v1 ?v3))) ))
(assert (forall ((?v0 Nibble$)) (! (= (size$d ?v0) zero$) :pattern ((size$d ?v0)))))
(assert (forall ((?v0 Char$)) (=> (forall ((?v1 Nibble$) (?v2 Nibble$)) (=> (= ?v0 (char$ ?v1 ?v2)) false) ) false) ))
(assert (= size$b (rec_bool$ zero$ zero$)))
(assert (forall ((?v0 Bool)) (! (= (fun_app$h size$b ?v0) zero$) :pattern ((fun_app$h size$b ?v0)))))
(assert (forall ((?v0 Literal$)) (! (= (size$c ?v0) zero$) :pattern ((size$c ?v0)))))
(assert (forall ((?v0 Nat$) (?v1 Nat$)) (! (= (fun_app$h (rec_bool$ ?v0 ?v1) false) ?v1) :pattern ((rec_bool$ ?v0 ?v1)))))
(assert (forall ((?v0 Nat$) (?v1 Nat$)) (! (= (fun_app$h (rec_bool$ ?v0 ?v1) true) ?v0) :pattern ((rec_bool$ ?v0 ?v1)))))
(assert (forall ((?v0 Nat$) (?v1 Natural_nat_fun$)) (! (= (fun_app$b (fun_app$k (case_natural$ ?v0) ?v1) zero$a) ?v0) :pattern ((fun_app$k (case_natural$ ?v0) ?v1)))))
(assert (forall ((?v0 Nat$) (?v1 Natural_nat_nat_fun_fun$)) (! (= (fun_app$b (fun_app$l (rec_natural$ ?v0) ?v1) zero$a) ?v0) :pattern ((fun_app$l (rec_natural$ ?v0) ?v1)))))
(assert (forall ((?v0 Typerep$)) (not (= (size$f ?v0) zero$)) ))
(assert (forall ((?v0 Nat$) (?v1 Natural_nat_fun$)) (= (fun_app$k (case_natural$ ?v0) ?v1) (fun_app$l (rec_natural$ ?v0) (uu$ ?v1))) ))
(assert (= (size$d nibbleA$) zero$))
(assert (= size_natural$ (fun_app$l (rec_natural$ zero$) uua$)))
(assert (= size$a (fun_app$l (rec_natural$ zero$) uua$)))
(assert (forall ((?v0 Nat$) (?v1 Natural_nat_fun$) (?v2 Natural$)) (! (= (fun_app$b (fun_app$k (case_natural$ ?v0) ?v1) (suc$a ?v2)) (fun_app$b ?v1 ?v2)) :pattern ((fun_app$b (fun_app$k (case_natural$ ?v0) ?v1) (suc$a ?v2))))))
(assert (forall ((?v0 Nat$) (?v1 Natural_nat_nat_fun_fun$) (?v2 Natural$)) (! (= (fun_app$b (fun_app$l (rec_natural$ ?v0) ?v1) (suc$a ?v2)) (fun_app$ (fun_app$a ?v1 ?v2) (fun_app$b (fun_app$l (rec_natural$ ?v0) ?v1) ?v2))) :pattern ((fun_app$b (fun_app$l (rec_natural$ ?v0) ?v1) (suc$a ?v2))))))
(assert (forall ((?v0 Nat$) (?v1 Nat$)) (= (= (fun_app$ suc$ ?v0) (fun_app$ suc$ ?v1)) (= ?v0 ?v1)) ))
(assert (forall ((?v0 Nat$) (?v1 Nat$)) (= (= (fun_app$ suc$ ?v0) (fun_app$ suc$ ?v1)) (= ?v0 ?v1)) ))
(assert (forall ((?v0 Natural$) (?v1 Natural$)) (= (= (suc$a ?v0) (suc$a ?v1)) (= ?v0 ?v1)) ))
(assert (forall ((?v0 Nat$)) (! (= (fun_app$f (fun_app$g compow$a ?v0) suc$) (plus$ ?v0)) :pattern ((fun_app$g compow$a ?v0)))))
(assert (forall ((?v0 Nat$) (?v1 Nat$)) (! (= (fun_app$ (plus$ ?v0) (fun_app$ suc$ ?v1)) (fun_app$ suc$ (fun_app$ (plus$ ?v0) ?v1))) :pattern ((fun_app$ (plus$ ?v0) (fun_app$ suc$ ?v1))))))
(assert (forall ((?v0 Nat$) (?v1 Nat$)) (! (= (fun_app$ (fun_app$f (fun_app$g compow$a ?v0) suc$) ?v1) (fun_app$ (plus$ ?v1) ?v0)) :pattern ((fun_app$ (fun_app$f (fun_app$g compow$a ?v0) suc$) ?v1)))))
(assert (forall ((?v0 Natural$)) (! (= (fun_app$b size$a (suc$a ?v0)) (fun_app$ (plus$ (fun_app$b size$a ?v0)) (fun_app$ suc$ zero$))) :pattern ((suc$a ?v0)))))
(assert (forall ((?v0 Natural$)) (! (= (fun_app$b size_natural$ (suc$a ?v0)) (fun_app$ (plus$ (fun_app$b size_natural$ ?v0)) (fun_app$ suc$ zero$))) :pattern ((suc$a ?v0)))))
(assert (forall ((?v0 Nat$) (?v1 Nat$)) (=> (= (fun_app$ suc$ ?v0) (fun_app$ suc$ ?v1)) (= ?v0 ?v1)) ))
(assert (forall ((?v0 Nat$)) (not (= ?v0 (fun_app$ suc$ ?v0))) ))
(assert (forall ((?v0 Nat$)) (=> (and (=> (= ?v0 zero$) false) (forall ((?v1 Nat$)) (=> (= ?v0 (fun_app$ suc$ ?v1)) false) )) false) ))
(assert (forall ((?v0 Nat_nat_bool_fun_fun$) (?v1 Nat$) (?v2 Nat$)) (=> (and (forall ((?v3 Nat$)) (fun_app$i (fun_app$j ?v0 ?v3) zero$) ) (and (forall ((?v3 Nat$)) (fun_app$i (fun_app$j ?v0 zero$) (fun_app$ suc$ ?v3)) ) (forall ((?v3 Nat$) (?v4 Nat$)) (=> (fun_app$i (fun_app$j ?v0 ?v3) ?v4) (fun_app$i (fun_app$j ?v0 (fun_app$ suc$ ?v3)) (fun_app$ suc$ ?v4))) ))) (fun_app$i (fun_app$j ?v0 ?v1) ?v2)) ))
(assert (forall ((?v0 Nat$)) (=> (= (fun_app$ suc$ ?v0) zero$) false) ))
(assert (forall ((?v0 Nat$) (?v1 Nat$)) (=> (= ?v0 (fun_app$ suc$ ?v1)) (not (= ?v0 zero$))) ))
(assert (forall ((?v0 Nat$)) (=> (= zero$ (fun_app$ suc$ ?v0)) false) ))
(assert (forall ((?v0 Nat$)) (=> (not (= ?v0 zero$)) (exists ((?v1 Nat$)) (= ?v0 (fun_app$ suc$ ?v1)) )) ))
(assert (forall ((?v0 Nat_bool_fun$) (?v1 Nat$)) (=> (and (fun_app$i ?v0 ?v1) (forall ((?v2 Nat$)) (=> (fun_app$i ?v0 (fun_app$ suc$ ?v2)) (fun_app$i ?v0 ?v2)) )) (fun_app$i ?v0 zero$)) ))
(assert (forall ((?v0 Nat_bool_fun$) (?v1 Nat$)) (=> (and (fun_app$i ?v0 zero$) (forall ((?v2 Nat$)) (=> (fun_app$i ?v0 ?v2) (fun_app$i ?v0 (fun_app$ suc$ ?v2))) )) (fun_app$i ?v0 ?v1)) ))
(assert (forall ((?v0 Nat$)) (not (= zero$ (fun_app$ suc$ ?v0))) ))
(assert (forall ((?v0 Nat$)) (not (= zero$ (fun_app$ suc$ ?v0))) ))
(assert (forall ((?v0 Nat$)) (not (= (fun_app$ suc$ ?v0) zero$)) ))
(assert (forall ((?v0 Nat$)) (not (= zero$ (fun_app$ suc$ ?v0))) ))
(assert (forall ((?v0 Nat$) (?v1 Nat$)) (! (= (fun_app$ (plus$ (fun_app$ suc$ ?v0)) ?v1) (fun_app$ suc$ (fun_app$ (plus$ ?v0) ?v1))) :pattern ((fun_app$ (plus$ (fun_app$ suc$ ?v0)) ?v1)))))
(assert (forall ((?v0 Nat$) (?v1 Nat$)) (! (= (fun_app$ (plus$ (fun_app$ suc$ ?v0)) ?v1) (fun_app$ (plus$ ?v0) (fun_app$ suc$ ?v1))) :pattern ((fun_app$ (plus$ (fun_app$ suc$ ?v0)) ?v1)))))
(assert (forall ((?v0 Natural$)) (=> (and (=> (= ?v0 zero$a) false) (forall ((?v1 Natural$)) (=> (= ?v0 (suc$a ?v1)) false) )) false) ))
(assert (forall ((?v0 Natural$)) (not (= zero$a (suc$a ?v0))) ))
(assert (forall ((?v0 Natural$)) (not (= (suc$a ?v0) zero$a)) ))
(assert (forall ((?v0 Nat$) (?v1 Nat$)) (= (= (fun_app$ suc$ zero$) (fun_app$ (plus$ ?v0) ?v1)) (or (and (= ?v0 (fun_app$ suc$ zero$)) (= ?v1 zero$)) (and (= ?v0 zero$) (= ?v1 (fun_app$ suc$ zero$))))) ))
(assert (forall ((?v0 Nat$) (?v1 Nat$)) (= (= (fun_app$ (plus$ ?v0) ?v1) (fun_app$ suc$ zero$)) (or (and (= ?v0 (fun_app$ suc$ zero$)) (= ?v1 zero$)) (and (= ?v0 zero$) (= ?v1 (fun_app$ suc$ zero$))))) ))
(assert (forall ((?v0 Nat_bool_fun$)) (=> (and (not (fun_app$i ?v0 zero$)) (exists ((?v1 Nat$)) (fun_app$i ?v0 ?v1) )) (exists ((?v1 Nat$)) (and (not (fun_app$i ?v0 ?v1)) (fun_app$i ?v0 (fun_app$ suc$ ?v1))) )) ))
(assert (forall ((?v0 Nat$)) (=> (and (=> (= ?v0 zero$) false) (forall ((?v1 Nat$)) (=> (= ?v0 (fun_app$ suc$ ?v1)) false) )) false) ))
(assert (forall ((?v0 Nat$)) (! (= (triangle$ (fun_app$ suc$ ?v0)) (fun_app$ (plus$ (triangle$ ?v0)) (fun_app$ suc$ ?v0))) :pattern ((fun_app$ suc$ ?v0)))))
(assert (= (triangle$ zero$) zero$))
(assert (= (size_nibble$ nibbleA$) zero$))
(assert (forall ((?v0 Nibble$)) (! (= (size_nibble$ ?v0) zero$) :pattern ((size_nibble$ ?v0)))))
(assert (= size$g (rec_unit$ zero$)))
(assert (forall ((?v0 Natural$) (?v1 Natural$) (?v2 Natural$)) (= (less$ (plus$a ?v0 ?v1) (plus$a ?v0 ?v2)) (less$ ?v1 ?v2)) ))
(assert (forall ((?v0 Nat$) (?v1 Nat$) (?v2 Nat$)) (= (fun_app$i (less$a (fun_app$ (plus$ ?v0) ?v1)) (fun_app$ (plus$ ?v0) ?v2)) (fun_app$i (less$a ?v1) ?v2)) ))
(assert (forall ((?v0 Natural$) (?v1 Natural$) (?v2 Natural$)) (= (less$ (plus$a ?v0 ?v1) (plus$a ?v2 ?v1)) (less$ ?v0 ?v2)) ))
(assert (forall ((?v0 Nat$) (?v1 Nat$) (?v2 Nat$)) (= (fun_app$i (less$a (fun_app$ (plus$ ?v0) ?v1)) (fun_app$ (plus$ ?v2) ?v1)) (fun_app$i (less$a ?v0) ?v2)) ))
(assert (forall ((?v0 Nat$)) (= (not (= ?v0 zero$)) (fun_app$i (less$a zero$) ?v0)) ))
(assert (forall ((?v0 Nat$)) (= (not (fun_app$i (less$a zero$) ?v0)) (= ?v0 zero$)) ))
(assert (forall ((?v0 Nat$)) (! (= (fun_app$i (less$a ?v0) zero$) false) :pattern ((less$a ?v0)))))
(assert (forall ((?v0 Nat$) (?v1 Nat$)) (! (= (fun_app$i (less$a (fun_app$ suc$ ?v0)) (fun_app$ suc$ ?v1)) (fun_app$i (less$a ?v0) ?v1)) :pattern ((fun_app$i (less$a (fun_app$ suc$ ?v0)) (fun_app$ suc$ ?v1))))))
(assert (forall ((?v0 Nat$) (?v1 Nat$)) (=> (fun_app$i (less$a ?v0) ?v1) (fun_app$i (less$a (fun_app$ suc$ ?v0)) (fun_app$ suc$ ?v1))) ))
(assert (forall ((?v0 Nat$)) (fun_app$i (less$a ?v0) (fun_app$ suc$ ?v0)) ))
(assert (forall ((?v0 Nat$) (?v1 Nat$) (?v2 Nat$)) (= (fun_app$i (less$a (fun_app$ (plus$ ?v0) ?v1)) (fun_app$ (plus$ ?v0) ?v2)) (fun_app$i (less$a ?v1) ?v2)) ))
(assert (forall ((?v0 Nat$)) (fun_app$i (less$a zero$) (fun_app$ suc$ ?v0)) ))
(assert (forall ((?v0 Nat$)) (! (= (fun_app$i (less$a ?v0) (fun_app$ suc$ zero$)) (= ?v0 zero$)) :pattern ((less$a ?v0)))))
(assert (forall ((?v0 Nat$) (?v1 Nat$)) (= (fun_app$i (less$a zero$) (fun_app$ (plus$ ?v0) ?v1)) (or (fun_app$i (less$a zero$) ?v0) (fun_app$i (less$a zero$) ?v1))) ))
(assert (forall ((?v0 Nat_natural_fun$) (?v1 Nat$) (?v2 Nat$)) (=> (and (forall ((?v3 Nat$)) (less$ (fun_app$m ?v0 ?v3) (fun_app$m ?v0 (fun_app$ suc$ ?v3))) ) (fun_app$i (less$a ?v1) ?v2)) (less$ (fun_app$m ?v0 ?v1) (fun_app$m ?v0 ?v2))) ))
(assert (forall ((?v0 Nat_nat_fun$) (?v1 Nat$) (?v2 Nat$)) (=> (and (forall ((?v3 Nat$)) (fun_app$i (less$a (fun_app$ ?v0 ?v3)) (fun_app$ ?v0 (fun_app$ suc$ ?v3))) ) (fun_app$i (less$a ?v1) ?v2)) (fun_app$i (less$a (fun_app$ ?v0 ?v1)) (fun_app$ ?v0 ?v2))) ))
(assert (forall ((?v0 Nat_natural_fun$) (?v1 Nat$) (?v2 Nat$)) (=> (forall ((?v3 Nat$)) (less$ (fun_app$m ?v0 ?v3) (fun_app$m ?v0 (fun_app$ suc$ ?v3))) ) (= (less$ (fun_app$m ?v0 ?v1) (fun_app$m ?v0 ?v2)) (fun_app$i (less$a ?v1) ?v2))) ))
(assert (forall ((?v0 Nat_nat_fun$) (?v1 Nat$) (?v2 Nat$)) (=> (forall ((?v3 Nat$)) (fun_app$i (less$a (fun_app$ ?v0 ?v3)) (fun_app$ ?v0 (fun_app$ suc$ ?v3))) ) (= (fun_app$i (less$a (fun_app$ ?v0 ?v1)) (fun_app$ ?v0 ?v2)) (fun_app$i (less$a ?v1) ?v2))) ))
(assert (forall ((?v0 Nat$)) (not (fun_app$i (less$a ?v0) ?v0)) ))
(assert (forall ((?v0 Nat$) (?v1 Nat$)) (=> (and (not (= ?v0 ?v1)) (and (=> (fun_app$i (less$a ?v0) ?v1) false) (=> (fun_app$i (less$a ?v1) ?v0) false))) false) ))
(assert (forall ((?v0 Nat$)) (=> (fun_app$i (less$a ?v0) ?v0) false) ))
(assert (forall ((?v0 Nat$) (?v1 Nat$)) (=> (fun_app$i (less$a ?v0) ?v1) (not (= ?v1 ?v0))) ))
(assert (forall ((?v0 Nat$) (?v1 Nat$)) (=> (fun_app$i (less$a ?v0) ?v1) (not (= ?v0 ?v1))) ))
(assert (forall ((?v0 Nat_bool_fun$) (?v1 Nat$)) (=> (forall ((?v2 Nat$)) (=> (forall ((?v3 Nat$)) (=> (fun_app$i (less$a ?v3) ?v2) (fun_app$i ?v0 ?v3)) ) (fun_app$i ?v0 ?v2)) ) (fun_app$i ?v0 ?v1)) ))
(assert (forall ((?v0 Nat_bool_fun$) (?v1 Nat$)) (=> (forall ((?v2 Nat$)) (=> (not (fun_app$i ?v0 ?v2)) (exists ((?v3 Nat$)) (and (fun_app$i (less$a ?v3) ?v2) (not (fun_app$i ?v0 ?v3))) )) ) (fun_app$i ?v0 ?v1)) ))
(assert (forall ((?v0 Nat$) (?v1 Nat$) (?v2 Nat_nat_bool_fun_fun$)) (=> (and (=> (fun_app$i (less$a ?v0) ?v1) (fun_app$i (fun_app$j ?v2 ?v1) ?v0)) (and (=> (= ?v0 ?v1) (fun_app$i (fun_app$j ?v2 ?v1) ?v0)) (=> (fun_app$i (less$a ?v1) ?v0) (fun_app$i (fun_app$j ?v2 ?v1) ?v0)))) (fun_app$i (fun_app$j ?v2 ?v1) ?v0)) ))
(assert (forall ((?v0 Nat$) (?v1 Nat$)) (= (not (= ?v0 ?v1)) (or (fun_app$i (less$a ?v0) ?v1) (fun_app$i (less$a ?v1) ?v0))) ))
(assert (forall ((?v0 Nat$) (?v1 Nat$)) (not (fun_app$i (less$a (fun_app$ (plus$ ?v0) ?v1)) ?v0)) ))
(assert (forall ((?v0 Nat$) (?v1 Nat$)) (not (fun_app$i (less$a (fun_app$ (plus$ ?v0) ?v1)) ?v1)) ))
(assert (forall ((?v0 Nat$) (?v1 Nat$) (?v2 Nat$)) (=> (fun_app$i (less$a ?v0) ?v1) (fun_app$i (less$a ?v0) (fun_app$ (plus$ ?v1) ?v2))) ))
(assert (forall ((?v0 Nat$) (?v1 Nat$) (?v2 Nat$)) (=> (fun_app$i (less$a ?v0) ?v1) (fun_app$i (less$a ?v0) (fun_app$ (plus$ ?v2) ?v1))) ))
(assert (forall ((?v0 Nat$) (?v1 Nat$) (?v2 Nat$)) (=> (fun_app$i (less$a ?v0) ?v1) (fun_app$i (less$a (fun_app$ (plus$ ?v0) ?v2)) (fun_app$ (plus$ ?v1) ?v2))) ))
(assert (forall ((?v0 Nat$) (?v1 Nat$) (?v2 Nat$) (?v3 Nat$)) (=> (and (fun_app$i (less$a ?v0) ?v1) (fun_app$i (less$a ?v2) ?v3)) (fun_app$i (less$a (fun_app$ (plus$ ?v0) ?v2)) (fun_app$ (plus$ ?v1) ?v3))) ))
(assert (forall ((?v0 Nat$) (?v1 Nat$) (?v2 Nat$) (?v3 Nat$)) (=> (and (fun_app$i (less$a ?v0) ?v1) (= (fun_app$ (plus$ ?v2) ?v1) (fun_app$ (plus$ ?v0) ?v3))) (fun_app$i (less$a ?v2) ?v3)) ))
(assert (forall ((?v0 Nat$) (?v1 Nat$) (?v2 Nat$)) (=> (fun_app$i (less$a (fun_app$ (plus$ ?v0) ?v1)) ?v2) (fun_app$i (less$a ?v0) ?v2)) ))
(assert (forall ((?v0 Nat$) (?v1 Nat$)) (! (= (fun_app$i (less$a ?v0) (fun_app$ suc$ ?v1)) (or (fun_app$i (less$a ?v0) ?v1) (= ?v0 ?v1))) :pattern ((fun_app$i (less$a ?v0) (fun_app$ suc$ ?v1))))))
(assert (forall ((?v0 Nat$) (?v1 Nat$)) (= (fun_app$i (less$a (fun_app$ suc$ ?v0)) ?v1) (exists ((?v2 Nat$)) (and (= ?v1 (fun_app$ suc$ ?v2)) (fun_app$i (less$a ?v0) ?v2)) )) ))
(assert (forall ((?v0 Nat$) (?v1 Nat$)) (= (not (fun_app$i (less$a ?v0) ?v1)) (fun_app$i (less$a ?v1) (fun_app$ suc$ ?v0))) ))
(assert (forall ((?v0 Nat$) (?v1 Nat$)) (=> (fun_app$i (less$a (fun_app$ suc$ ?v0)) (fun_app$ suc$ ?v1)) (fun_app$i (less$a ?v0) ?v1)) ))
(assert (forall ((?v0 Nat$) (?v1 Nat$)) (=> (and (fun_app$i (less$a (fun_app$ suc$ ?v0)) ?v1) (forall ((?v2 Nat$)) (=> (and (fun_app$i (less$a ?v0) ?v2) (= ?v1 (fun_app$ suc$ ?v2))) false) )) false) ))
(assert (forall ((?v0 Nat$) (?v1 Nat$)) (=> (fun_app$i (less$a (fun_app$ suc$ ?v0)) ?v1) (fun_app$i (less$a ?v0) ?v1)) ))
(assert (forall ((?v0 Nat$) (?v1 Nat$)) (=> (and (fun_app$i (less$a ?v0) (fun_app$ suc$ ?v1)) (and (=> (fun_app$i (less$a ?v0) ?v1) false) (=> (= ?v0 ?v1) false))) false) ))
(assert (forall ((?v0 Nat$) (?v1 Nat$)) (=> (and (fun_app$i (less$a ?v0) ?v1) (and (=> (= ?v1 (fun_app$ suc$ ?v0)) false) (forall ((?v2 Nat$)) (=> (and (fun_app$i (less$a ?v0) ?v2) (= ?v1 (fun_app$ suc$ ?v2))) false) ))) false) ))
(assert (forall ((?v0 Nat$) (?v1 Nat$) (?v2 Nat_bool_fun$)) (=> (and (fun_app$i (less$a ?v0) ?v1) (and (forall ((?v3 Nat$)) (=> (= ?v1 (fun_app$ suc$ ?v3)) (fun_app$i ?v2 ?v3)) ) (forall ((?v3 Nat$)) (=> (and (fun_app$i (less$a ?v3) ?v1) (fun_app$i ?v2 (fun_app$ suc$ ?v3))) (fun_app$i ?v2 ?v3)) ))) (fun_app$i ?v2 ?v0)) ))
(assert (forall ((?v0 Nat$) (?v1 Nat$) (?v2 Nat_nat_bool_fun_fun$)) (=> (and (fun_app$i (less$a ?v0) ?v1) (and (forall ((?v3 Nat$)) (fun_app$i (fun_app$j ?v2 ?v3) (fun_app$ suc$ ?v3)) ) (forall ((?v3 Nat$) (?v4 Nat$) (?v5 Nat$)) (=> (and (fun_app$i (less$a ?v3) ?v4) (and (fun_app$i (less$a ?v4) ?v5) (and (fun_app$i (fun_app$j ?v2 ?v3) ?v4) (fun_app$i (fun_app$j ?v2 ?v4) ?v5)))) (fun_app$i (fun_app$j ?v2 ?v3) ?v5)) ))) (fun_app$i (fun_app$j ?v2 ?v0) ?v1)) ))
(assert (forall ((?v0 Nat$) (?v1 Nat$) (?v2 Nat$)) (=> (and (fun_app$i (less$a ?v0) ?v1) (fun_app$i (less$a ?v1) ?v2)) (fun_app$i (less$a (fun_app$ suc$ ?v0)) ?v2)) ))
(assert (forall ((?v0 Nat$) (?v1 Nat$)) (=> (and (fun_app$i (less$a ?v0) ?v1) (not (= (fun_app$ suc$ ?v0) ?v1))) (fun_app$i (less$a (fun_app$ suc$ ?v0)) ?v1)) ))
(assert (forall ((?v0 Nat$) (?v1 Nat$)) (=> (fun_app$i (less$a ?v0) ?v1) (fun_app$i (less$a ?v0) (fun_app$ suc$ ?v1))) ))
(assert (forall ((?v0 Nat$) (?v1 Nat$)) (=> (and (not (fun_app$i (less$a ?v0) ?v1)) (fun_app$i (less$a ?v0) (fun_app$ suc$ ?v1))) (= ?v1 ?v0)) ))
(assert (forall ((?v0 Nat$) (?v1 Nat$)) (! (=> (not (fun_app$i (less$a ?v0) ?v1)) (= (fun_app$i (less$a ?v0) (fun_app$ suc$ ?v1)) (= ?v0 ?v1))) :pattern ((fun_app$i (less$a ?v0) (fun_app$ suc$ ?v1))))))
(assert (forall ((?v0 Nat$)) (=> (=> (= ?v0 zero$) false) (fun_app$i (less$a zero$) ?v0)) ))
(assert (forall ((?v0 Nat$) (?v1 Nat$)) (=> (fun_app$i (less$a ?v0) ?v1) (not (= ?v1 zero$))) ))
(assert (forall ((?v0 Nat$)) (=> (fun_app$i (less$a ?v0) zero$) false) ))
(assert (forall ((?v0 Nat_bool_fun$) (?v1 Nat$)) (=> (and (fun_app$i ?v0 zero$) (forall ((?v2 Nat$)) (=> (and (fun_app$i (less$a zero$) ?v2) (not (fun_app$i ?v0 ?v2))) (exists ((?v3 Nat$)) (and (fun_app$i (less$a ?v3) ?v2) (not (fun_app$i ?v0 ?v3))) )) )) (fun_app$i ?v0 ?v1)) ))
(assert (forall ((?v0 Nat$)) (not (fun_app$i (less$a ?v0) zero$)) ))
(assert (forall ((?v0 Natural$) (?v1 Natural$) (?v2 Natural$)) (=> (less$ ?v0 ?v1) (less$ (plus$a ?v2 ?v0) (plus$a ?v2 ?v1))) ))
(assert (forall ((?v0 Nat$) (?v1 Nat$) (?v2 Nat$)) (=> (fun_app$i (less$a ?v0) ?v1) (fun_app$i (less$a (fun_app$ (plus$ ?v2) ?v0)) (fun_app$ (plus$ ?v2) ?v1))) ))
(assert (forall ((?v0 Natural$) (?v1 Natural$) (?v2 Natural$)) (=> (less$ ?v0 ?v1) (less$ (plus$a ?v0 ?v2) (plus$a ?v1 ?v2))) ))
(assert (forall ((?v0 Nat$) (?v1 Nat$) (?v2 Nat$)) (=> (fun_app$i (less$a ?v0) ?v1) (fun_app$i (less$a (fun_app$ (plus$ ?v0) ?v2)) (fun_app$ (plus$ ?v1) ?v2))) ))
(assert (forall ((?v0 Natural$) (?v1 Natural$) (?v2 Natural$) (?v3 Natural$)) (=> (and (less$ ?v0 ?v1) (less$ ?v2 ?v3)) (less$ (plus$a ?v0 ?v2) (plus$a ?v1 ?v3))) ))
(assert (forall ((?v0 Nat$) (?v1 Nat$) (?v2 Nat$) (?v3 Nat$)) (=> (and (fun_app$i (less$a ?v0) ?v1) (fun_app$i (less$a ?v2) ?v3)) (fun_app$i (less$a (fun_app$ (plus$ ?v0) ?v2)) (fun_app$ (plus$ ?v1) ?v3))) ))
(assert (forall ((?v0 Natural$) (?v1 Natural$) (?v2 Natural$)) (=> (less$ (plus$a ?v0 ?v1) (plus$a ?v0 ?v2)) (less$ ?v1 ?v2)) ))
(assert (forall ((?v0 Nat$) (?v1 Nat$) (?v2 Nat$)) (=> (fun_app$i (less$a (fun_app$ (plus$ ?v0) ?v1)) (fun_app$ (plus$ ?v0) ?v2)) (fun_app$i (less$a ?v1) ?v2)) ))
(assert (forall ((?v0 Natural$) (?v1 Natural$) (?v2 Natural$)) (=> (less$ (plus$a ?v0 ?v1) (plus$a ?v2 ?v1)) (less$ ?v0 ?v2)) ))
(assert (forall ((?v0 Nat$) (?v1 Nat$) (?v2 Nat$)) (=> (fun_app$i (less$a (fun_app$ (plus$ ?v0) ?v1)) (fun_app$ (plus$ ?v2) ?v1)) (fun_app$i (less$a ?v0) ?v2)) ))
(assert (forall ((?v0 Natural$) (?v1 Natural$) (?v2 Natural$) (?v3 Natural$)) (=> (and (less$ ?v0 ?v1) (less$ ?v2 ?v3)) (less$ (plus$a ?v0 ?v2) (plus$a ?v1 ?v3))) ))
(assert (forall ((?v0 Nat$) (?v1 Nat$) (?v2 Nat$) (?v3 Nat$)) (=> (and (fun_app$i (less$a ?v0) ?v1) (fun_app$i (less$a ?v2) ?v3)) (fun_app$i (less$a (fun_app$ (plus$ ?v0) ?v2)) (fun_app$ (plus$ ?v1) ?v3))) ))
(assert (forall ((?v0 Natural$) (?v1 Natural$) (?v2 Natural$) (?v3 Natural$)) (=> (and (less$ ?v0 ?v1) (= ?v2 ?v3)) (less$ (plus$a ?v0 ?v2) (plus$a ?v1 ?v3))) ))
(assert (forall ((?v0 Nat$) (?v1 Nat$) (?v2 Nat$) (?v3 Nat$)) (=> (and (fun_app$i (less$a ?v0) ?v1) (= ?v2 ?v3)) (fun_app$i (less$a (fun_app$ (plus$ ?v0) ?v2)) (fun_app$ (plus$ ?v1) ?v3))) ))
(assert (forall ((?v0 Natural$) (?v1 Natural$) (?v2 Natural$) (?v3 Natural$)) (=> (and (= ?v0 ?v1) (less$ ?v2 ?v3)) (less$ (plus$a ?v0 ?v2) (plus$a ?v1 ?v3))) ))
(assert (forall ((?v0 Nat$) (?v1 Nat$) (?v2 Nat$) (?v3 Nat$)) (=> (and (= ?v0 ?v1) (fun_app$i (less$a ?v2) ?v3)) (fun_app$i (less$a (fun_app$ (plus$ ?v0) ?v2)) (fun_app$ (plus$ ?v1) ?v3))) ))
(assert (forall ((?v0 Natural$) (?v1 Natural$)) (=> (and (less$ ?v0 zero$a) (less$ ?v1 zero$a)) (less$ (plus$a ?v0 ?v1) zero$a)) ))
(assert (forall ((?v0 Nat$) (?v1 Nat$)) (=> (and (fun_app$i (less$a ?v0) zero$) (fun_app$i (less$a ?v1) zero$)) (fun_app$i (less$a (fun_app$ (plus$ ?v0) ?v1)) zero$)) ))
(assert (forall ((?v0 Natural$) (?v1 Natural$)) (=> (and (less$ zero$a ?v0) (less$ zero$a ?v1)) (less$ zero$a (plus$a ?v0 ?v1))) ))
(assert (forall ((?v0 Nat$) (?v1 Nat$)) (=> (and (fun_app$i (less$a zero$) ?v0) (fun_app$i (less$a zero$) ?v1)) (fun_app$i (less$a zero$) (fun_app$ (plus$ ?v0) ?v1))) ))
(assert (forall ((?v0 Nat$)) (=> (fun_app$i (less$a zero$) ?v0) (exists ((?v1 Nat$)) (= ?v0 (fun_app$ suc$ ?v1)) )) ))
(assert (forall ((?v0 Nat$)) (= (fun_app$i (less$a zero$) ?v0) (exists ((?v1 Nat$)) (= ?v0 (fun_app$ suc$ ?v1)) )) ))
(assert (forall ((?v0 Nat$) (?v1 Nat$)) (= (fun_app$i (less$a ?v0) (fun_app$ suc$ ?v1)) (or (= ?v0 zero$) (exists ((?v2 Nat$)) (and (= ?v0 (fun_app$ suc$ ?v2)) (fun_app$i (less$a ?v2) ?v1)) ))) ))
(assert (forall ((?v0 Nat$) (?v1 Nat$)) (=> (fun_app$i (less$a ?v0) ?v1) (exists ((?v2 Nat$)) (and (fun_app$i (less$a zero$) ?v2) (= (fun_app$ (plus$ ?v0) ?v2) ?v1)) )) ))
(assert (forall ((?v0 Nat$) (?v1 Nat$)) (fun_app$i (less$a ?v0) (fun_app$ suc$ (fun_app$ (plus$ ?v0) ?v1))) ))
(assert (forall ((?v0 Nat$) (?v1 Nat$)) (fun_app$i (less$a ?v0) (fun_app$ suc$ (fun_app$ (plus$ ?v1) ?v0))) ))
(assert (forall ((?v0 Nat$) (?v1 Nat$)) (=> (fun_app$i (less$a ?v0) ?v1) (exists ((?v2 Nat$)) (= ?v1 (fun_app$ suc$ (fun_app$ (plus$ ?v0) ?v2))) )) ))
(assert (forall ((?v0 Nat$) (?v1 Nat$)) (= (fun_app$i (less$a ?v0) ?v1) (exists ((?v2 Nat$)) (= ?v1 (fun_app$ suc$ (fun_app$ (plus$ ?v0) ?v2))) )) ))
(assert (= size_unit$ (rec_unit$ zero$)))
(assert (forall ((?v0 Nat$) (?v1 Nat$) (?v2 Nat$)) (=> (and (fun_app$i (less$a zero$) ?v0) (fun_app$i (less$a ?v1) ?v2)) (fun_app$i (less$a ?v1) (fun_app$ (plus$ ?v0) ?v2))) ))
(assert (not (fun_app$i (less$a zero$) zero$)))
(assert (forall ((?v0 Nat$) (?v1 Nat$)) (=> (and (fun_app$i (less$a zero$) ?v0) (fun_app$i (less$a zero$) ?v1)) (= (num_of_nat$ (fun_app$ (plus$ ?v0) ?v1)) (plus$b (num_of_nat$ ?v0) (num_of_nat$ ?v1)))) ))
(assert (forall ((?v0 Nat$)) (=> (fun_app$i (less$a zero$) ?v0) (= (num_of_nat$ (fun_app$ (plus$ ?v0) ?v0)) (bit0$ (num_of_nat$ ?v0)))) ))
(assert (forall ((?v0 Nat$)) (= (fun_app$i (less$a zero$) (of_nat$ ?v0)) (fun_app$i (less$a zero$) ?v0)) ))
(assert (forall ((?v0 Nat$) (?v1 Nat$)) (= (= (of_nat$ ?v0) (of_nat$ ?v1)) (= ?v0 ?v1)) ))
(assert (forall ((?v0 Nat$)) (= (= (of_nat$ ?v0) zero$) (= ?v0 zero$)) ))
(assert (forall ((?v0 Nat$)) (= (= zero$ (of_nat$ ?v0)) (= zero$ ?v0)) ))
(assert (= (of_nat$ zero$) zero$))
(assert (= (of_nat$a zero$) zero$a))
(assert (forall ((?v0 Nat$) (?v1 Nat$)) (= (fun_app$i (less$a (of_nat$ ?v0)) (of_nat$ ?v1)) (fun_app$i (less$a ?v0) ?v1)) ))
(assert (forall ((?v0 Nat$) (?v1 Nat$)) (= (of_nat$a (fun_app$ (plus$ ?v0) ?v1)) (plus$a (of_nat$a ?v0) (of_nat$a ?v1))) ))
(assert (forall ((?v0 Nat$) (?v1 Nat$)) (= (of_nat$ (fun_app$ (plus$ ?v0) ?v1)) (fun_app$ (plus$ (of_nat$ ?v0)) (of_nat$ ?v1))) ))
(assert (forall ((?v0 Num$)) (! (= (size$e (bit0$ ?v0)) (fun_app$ (plus$ (size$e ?v0)) (fun_app$ suc$ zero$))) :pattern ((bit0$ ?v0)))))
(check-sat)
(exit)

